c File: flat75_3_0.col
c
c SOURCE: Joseph Culberson (joe@cs.ualberta.ca)
c DESCRIPTION: Quasi-random coloring problem
c              generated with flatness = 0
c                             probability = 0.096
c                             known coloring = 3
c                             random seed = 1006
c              Creation Date:  Wed Feb 24 10:41:48 1999
c Maximum degree = 8 Minimum degree = 1
c COLOR VERIFICATION: Using the permuted order
c under simple greedy yields the specified
c coloring number
c Color = 3 specified partitions = 3
c p edge 75 180
c cnf created by edge2cnf
p cnf 225 840
-1 -2 0
-1 -3 0
-2 -3 0
1 2 3 0
-4 -5 0
-4 -6 0
-5 -6 0
4 5 6 0
-7 -8 0
-7 -9 0
-8 -9 0
7 8 9 0
-10 -11 0
-10 -12 0
-11 -12 0
10 11 12 0
-13 -14 0
-13 -15 0
-14 -15 0
13 14 15 0
-16 -17 0
-16 -18 0
-17 -18 0
16 17 18 0
-19 -20 0
-19 -21 0
-20 -21 0
19 20 21 0
-22 -23 0
-22 -24 0
-23 -24 0
22 23 24 0
-25 -26 0
-25 -27 0
-26 -27 0
25 26 27 0
-28 -29 0
-28 -30 0
-29 -30 0
28 29 30 0
-31 -32 0
-31 -33 0
-32 -33 0
31 32 33 0
-34 -35 0
-34 -36 0
-35 -36 0
34 35 36 0
-37 -38 0
-37 -39 0
-38 -39 0
37 38 39 0
-40 -41 0
-40 -42 0
-41 -42 0
40 41 42 0
-43 -44 0
-43 -45 0
-44 -45 0
43 44 45 0
-46 -47 0
-46 -48 0
-47 -48 0
46 47 48 0
-49 -50 0
-49 -51 0
-50 -51 0
49 50 51 0
-52 -53 0
-52 -54 0
-53 -54 0
52 53 54 0
-55 -56 0
-55 -57 0
-56 -57 0
55 56 57 0
-58 -59 0
-58 -60 0
-59 -60 0
58 59 60 0
-61 -62 0
-61 -63 0
-62 -63 0
61 62 63 0
-64 -65 0
-64 -66 0
-65 -66 0
64 65 66 0
-67 -68 0
-67 -69 0
-68 -69 0
67 68 69 0
-70 -71 0
-70 -72 0
-71 -72 0
70 71 72 0
-73 -74 0
-73 -75 0
-74 -75 0
73 74 75 0
-76 -77 0
-76 -78 0
-77 -78 0
76 77 78 0
-79 -80 0
-79 -81 0
-80 -81 0
79 80 81 0
-82 -83 0
-82 -84 0
-83 -84 0
82 83 84 0
-85 -86 0
-85 -87 0
-86 -87 0
85 86 87 0
-88 -89 0
-88 -90 0
-89 -90 0
88 89 90 0
-91 -92 0
-91 -93 0
-92 -93 0
91 92 93 0
-94 -95 0
-94 -96 0
-95 -96 0
94 95 96 0
-97 -98 0
-97 -99 0
-98 -99 0
97 98 99 0
-100 -101 0
-100 -102 0
-101 -102 0
100 101 102 0
-103 -104 0
-103 -105 0
-104 -105 0
103 104 105 0
-106 -107 0
-106 -108 0
-107 -108 0
106 107 108 0
-109 -110 0
-109 -111 0
-110 -111 0
109 110 111 0
-112 -113 0
-112 -114 0
-113 -114 0
112 113 114 0
-115 -116 0
-115 -117 0
-116 -117 0
115 116 117 0
-118 -119 0
-118 -120 0
-119 -120 0
118 119 120 0
-121 -122 0
-121 -123 0
-122 -123 0
121 122 123 0
-124 -125 0
-124 -126 0
-125 -126 0
124 125 126 0
-127 -128 0
-127 -129 0
-128 -129 0
127 128 129 0
-130 -131 0
-130 -132 0
-131 -132 0
130 131 132 0
-133 -134 0
-133 -135 0
-134 -135 0
133 134 135 0
-136 -137 0
-136 -138 0
-137 -138 0
136 137 138 0
-139 -140 0
-139 -141 0
-140 -141 0
139 140 141 0
-142 -143 0
-142 -144 0
-143 -144 0
142 143 144 0
-145 -146 0
-145 -147 0
-146 -147 0
145 146 147 0
-148 -149 0
-148 -150 0
-149 -150 0
148 149 150 0
-151 -152 0
-151 -153 0
-152 -153 0
151 152 153 0
-154 -155 0
-154 -156 0
-155 -156 0
154 155 156 0
-157 -158 0
-157 -159 0
-158 -159 0
157 158 159 0
-160 -161 0
-160 -162 0
-161 -162 0
160 161 162 0
-163 -164 0
-163 -165 0
-164 -165 0
163 164 165 0
-166 -167 0
-166 -168 0
-167 -168 0
166 167 168 0
-169 -170 0
-169 -171 0
-170 -171 0
169 170 171 0
-172 -173 0
-172 -174 0
-173 -174 0
172 173 174 0
-175 -176 0
-175 -177 0
-176 -177 0
175 176 177 0
-178 -179 0
-178 -180 0
-179 -180 0
178 179 180 0
-181 -182 0
-181 -183 0
-182 -183 0
181 182 183 0
-184 -185 0
-184 -186 0
-185 -186 0
184 185 186 0
-187 -188 0
-187 -189 0
-188 -189 0
187 188 189 0
-190 -191 0
-190 -192 0
-191 -192 0
190 191 192 0
-193 -194 0
-193 -195 0
-194 -195 0
193 194 195 0
-196 -197 0
-196 -198 0
-197 -198 0
196 197 198 0
-199 -200 0
-199 -201 0
-200 -201 0
199 200 201 0
-202 -203 0
-202 -204 0
-203 -204 0
202 203 204 0
-205 -206 0
-205 -207 0
-206 -207 0
205 206 207 0
-208 -209 0
-208 -210 0
-209 -210 0
208 209 210 0
-211 -212 0
-211 -213 0
-212 -213 0
211 212 213 0
-214 -215 0
-214 -216 0
-215 -216 0
214 215 216 0
-217 -218 0
-217 -219 0
-218 -219 0
217 218 219 0
-220 -221 0
-220 -222 0
-221 -222 0
220 221 222 0
-223 -224 0
-223 -225 0
-224 -225 0
223 224 225 0
-40 -1 0
-41 -2 0
-42 -3 0
-199 -1 0
-200 -2 0
-201 -3 0
-64 -4 0
-65 -5 0
-66 -6 0
-103 -4 0
-104 -5 0
-105 -6 0
-112 -4 0
-113 -5 0
-114 -6 0
-181 -4 0
-182 -5 0
-183 -6 0
-19 -7 0
-20 -8 0
-21 -9 0
-46 -7 0
-47 -8 0
-48 -9 0
-52 -7 0
-53 -8 0
-54 -9 0
-58 -7 0
-59 -8 0
-60 -9 0
-112 -7 0
-113 -8 0
-114 -9 0
-136 -7 0
-137 -8 0
-138 -9 0
-145 -7 0
-146 -8 0
-147 -9 0
-157 -7 0
-158 -8 0
-159 -9 0
-34 -10 0
-35 -11 0
-36 -12 0
-58 -10 0
-59 -11 0
-60 -12 0
-82 -10 0
-83 -11 0
-84 -12 0
-46 -13 0
-47 -14 0
-48 -15 0
-55 -13 0
-56 -14 0
-57 -15 0
-109 -13 0
-110 -14 0
-111 -15 0
-148 -13 0
-149 -14 0
-150 -15 0
-166 -13 0
-167 -14 0
-168 -15 0
-217 -13 0
-218 -14 0
-219 -15 0
-40 -16 0
-41 -17 0
-42 -18 0
-46 -16 0
-47 -17 0
-48 -18 0
-100 -16 0
-101 -17 0
-102 -18 0
-139 -16 0
-140 -17 0
-141 -18 0
-151 -16 0
-152 -17 0
-153 -18 0
-199 -16 0
-200 -17 0
-201 -18 0
-217 -16 0
-218 -17 0
-219 -18 0
-37 -19 0
-38 -20 0
-39 -21 0
-52 -19 0
-53 -20 0
-54 -21 0
-106 -19 0
-107 -20 0
-108 -21 0
-109 -19 0
-110 -20 0
-111 -21 0
-169 -19 0
-170 -20 0
-171 -21 0
-217 -19 0
-218 -20 0
-219 -21 0
-25 -22 0
-26 -23 0
-27 -24 0
-121 -22 0
-122 -23 0
-123 -24 0
-178 -22 0
-179 -23 0
-180 -24 0
-208 -22 0
-209 -23 0
-210 -24 0
-97 -25 0
-98 -26 0
-99 -27 0
-115 -25 0
-116 -26 0
-117 -27 0
-121 -25 0
-122 -26 0
-123 -27 0
-157 -25 0
-158 -26 0
-159 -27 0
-163 -25 0
-164 -26 0
-165 -27 0
-121 -28 0
-122 -29 0
-123 -30 0
-175 -28 0
-176 -29 0
-177 -30 0
-187 -28 0
-188 -29 0
-189 -30 0
-217 -28 0
-218 -29 0
-219 -30 0
-61 -31 0
-62 -32 0
-63 -33 0
-112 -31 0
-113 -32 0
-114 -33 0
-139 -31 0
-140 -32 0
-141 -33 0
-142 -31 0
-143 -32 0
-144 -33 0
-160 -31 0
-161 -32 0
-162 -33 0
-199 -31 0
-200 -32 0
-201 -33 0
-154 -34 0
-155 -35 0
-156 -36 0
-205 -34 0
-206 -35 0
-207 -36 0
-220 -34 0
-221 -35 0
-222 -36 0
-46 -37 0
-47 -38 0
-48 -39 0
-49 -37 0
-50 -38 0
-51 -39 0
-73 -37 0
-74 -38 0
-75 -39 0
-76 -37 0
-77 -38 0
-78 -39 0
-178 -37 0
-179 -38 0
-180 -39 0
-199 -37 0
-200 -38 0
-201 -39 0
-133 -40 0
-134 -41 0
-135 -42 0
-160 -40 0
-161 -41 0
-162 -42 0
-175 -43 0
-176 -44 0
-177 -45 0
-49 -46 0
-50 -47 0
-51 -48 0
-61 -46 0
-62 -47 0
-63 -48 0
-166 -46 0
-167 -47 0
-168 -48 0
-193 -46 0
-194 -47 0
-195 -48 0
-55 -49 0
-56 -50 0
-57 -51 0
-79 -49 0
-80 -50 0
-81 -51 0
-121 -49 0
-122 -50 0
-123 -51 0
-163 -49 0
-164 -50 0
-165 -51 0
-187 -49 0
-188 -50 0
-189 -51 0
-106 -52 0
-107 -53 0
-108 -54 0
-148 -52 0
-149 -53 0
-150 -54 0
-154 -52 0
-155 -53 0
-156 -54 0
-172 -52 0
-173 -53 0
-174 -54 0
-121 -55 0
-122 -56 0
-123 -57 0
-187 -55 0
-188 -56 0
-189 -57 0
-199 -55 0
-200 -56 0
-201 -57 0
-217 -55 0
-218 -56 0
-219 -57 0
-121 -58 0
-122 -59 0
-123 -60 0
-208 -58 0
-209 -59 0
-210 -60 0
-223 -58 0
-224 -59 0
-225 -60 0
-91 -61 0
-92 -62 0
-93 -63 0
-139 -61 0
-140 -62 0
-141 -63 0
-151 -61 0
-152 -62 0
-153 -63 0
-88 -64 0
-89 -65 0
-90 -66 0
-124 -64 0
-125 -65 0
-126 -66 0
-196 -64 0
-197 -65 0
-198 -66 0
-112 -67 0
-113 -68 0
-114 -69 0
-157 -67 0
-158 -68 0
-159 -69 0
-184 -67 0
-185 -68 0
-186 -69 0
-193 -67 0
-194 -68 0
-195 -69 0
-208 -67 0
-209 -68 0
-210 -69 0
-214 -67 0
-215 -68 0
-216 -69 0
-91 -70 0
-92 -71 0
-93 -72 0
-103 -70 0
-104 -71 0
-105 -72 0
-154 -70 0
-155 -71 0
-156 -72 0
-88 -73 0
-89 -74 0
-90 -75 0
-118 -73 0
-119 -74 0
-120 -75 0
-127 -73 0
-128 -74 0
-129 -75 0
-151 -73 0
-152 -74 0
-153 -75 0
-166 -73 0
-167 -74 0
-168 -75 0
-166 -76 0
-167 -77 0
-168 -78 0
-199 -76 0
-200 -77 0
-201 -78 0
-88 -79 0
-89 -80 0
-90 -81 0
-169 -79 0
-170 -80 0
-171 -81 0
-187 -79 0
-188 -80 0
-189 -81 0
-205 -79 0
-206 -80 0
-207 -81 0
-127 -82 0
-128 -83 0
-129 -84 0
-175 -82 0
-176 -83 0
-177 -84 0
-196 -82 0
-197 -83 0
-198 -84 0
-223 -82 0
-224 -83 0
-225 -84 0
-157 -85 0
-158 -86 0
-159 -87 0
-163 -85 0
-164 -86 0
-165 -87 0
-169 -85 0
-170 -86 0
-171 -87 0
-181 -85 0
-182 -86 0
-183 -87 0
-202 -88 0
-203 -89 0
-204 -90 0
-205 -88 0
-206 -89 0
-207 -90 0
-214 -88 0
-215 -89 0
-216 -90 0
-220 -88 0
-221 -89 0
-222 -90 0
-127 -91 0
-128 -92 0
-129 -93 0
-160 -91 0
-161 -92 0
-162 -93 0
-196 -91 0
-197 -92 0
-198 -93 0
-97 -94 0
-98 -95 0
-99 -96 0
-100 -94 0
-101 -95 0
-102 -96 0
-103 -94 0
-104 -95 0
-105 -96 0
-184 -94 0
-185 -95 0
-186 -96 0
-187 -94 0
-188 -95 0
-189 -96 0
-106 -97 0
-107 -98 0
-108 -99 0
-136 -100 0
-137 -101 0
-138 -102 0
-211 -100 0
-212 -101 0
-213 -102 0
-133 -103 0
-134 -104 0
-135 -105 0
-133 -106 0
-134 -107 0
-135 -108 0
-160 -106 0
-161 -107 0
-162 -108 0
-202 -106 0
-203 -107 0
-204 -108 0
-205 -106 0
-206 -107 0
-207 -108 0
-130 -109 0
-131 -110 0
-132 -111 0
-118 -112 0
-119 -113 0
-120 -114 0
-142 -115 0
-143 -116 0
-144 -117 0
-148 -115 0
-149 -116 0
-150 -117 0
-166 -115 0
-167 -116 0
-168 -117 0
-202 -115 0
-203 -116 0
-204 -117 0
-205 -115 0
-206 -116 0
-207 -117 0
-145 -118 0
-146 -119 0
-147 -120 0
-178 -118 0
-179 -119 0
-180 -120 0
-154 -121 0
-155 -122 0
-156 -123 0
-160 -121 0
-161 -122 0
-162 -123 0
-166 -124 0
-167 -125 0
-168 -126 0
-172 -124 0
-173 -125 0
-174 -126 0
-214 -124 0
-215 -125 0
-216 -126 0
-193 -127 0
-194 -128 0
-195 -129 0
-214 -127 0
-215 -128 0
-216 -129 0
-190 -130 0
-191 -131 0
-192 -132 0
-157 -133 0
-158 -134 0
-159 -135 0
-181 -133 0
-182 -134 0
-183 -135 0
-193 -133 0
-194 -134 0
-195 -135 0
-196 -133 0
-197 -134 0
-198 -135 0
-181 -136 0
-182 -137 0
-183 -138 0
-181 -145 0
-182 -146 0
-183 -147 0
-205 -145 0
-206 -146 0
-207 -147 0
-211 -148 0
-212 -149 0
-213 -150 0
-199 -151 0
-200 -152 0
-201 -153 0
-172 -154 0
-173 -155 0
-174 -156 0
-178 -154 0
-179 -155 0
-180 -156 0
-160 -157 0
-161 -158 0
-162 -159 0
-196 -160 0
-197 -161 0
-198 -162 0
-199 -160 0
-200 -161 0
-201 -162 0
-169 -166 0
-170 -167 0
-171 -168 0
-184 -172 0
-185 -173 0
-186 -174 0
-217 -175 0
-218 -176 0
-219 -177 0
-220 -181 0
-221 -182 0
-222 -183 0
-220 -187 0
-221 -188 0
-222 -189 0
-202 -193 0
-203 -194 0
-204 -195 0
-220 -205 0
-221 -206 0
-222 -207 0
-223 -220 0
-224 -221 0
-225 -222 0
